p tw 57 6841 2 
1 3 
1 4 
1 5 
1 6 
1 7 
1 8 
1 9 
1 10 
1 11 
1 12 
1 13 
1 14 
1 15 
1 16 
1 17 
1 22 
1 28 
1 34 
1 38 
1 43 
1 46 
1 49 
1 53 
2 3 
2 4 
2 5 
2 6 
2 7 
2 8 
2 9 
2 10 
2 16 
2 18 
2 19 
2 20 
2 21 
2 22 
2 23 
2 24 
2 28 
2 31 
2 42 
2 47 
2 51 
2 54 
2 55 
3 4 
3 5 
3 6 
3 7 
3 8 
3 9 
3 11 
3 17 
3 18 
3 23 
3 25 
3 26 
3 27 
3 28 
3 29 
3 30 
3 35 
3 36 
3 46 
3 50 
3 52 
3 54 
4 5 
4 6 
4 7 
4 8 
4 9 
4 10 
4 12 
4 19 
4 25 
4 30 
4 31 
4 32 
4 33 
4 34 
4 35 
4 40 
4 44 
4 45 
4 49 
4 54 
4 57 
5 6 
5 7 
5 8 
5 9 
5 13 
5 14 
5 18 
5 21 
5 26 
5 31 
5 33 
5 36 
5 37 
5 38 
5 39 
5 40 
5 41 
5 45 
5 46 
5 47 
6 7 
6 8 
6 9 
6 11 
6 15 
6 20 
6 24 
6 29 
6 32 
6 34 
6 36 
6 40 
6 41 
6 42 
6 43 
6 44 
6 47 
6 50 
6 56 
7 8 
7 9 
7 13 
7 17 
7 19 
7 21 
7 27 
7 30 
7 32 
7 37 
7 41 
7 48 
7 49 
7 50 
7 51 
7 53 
7 55 
7 56 
8 9 
8 14 
8 15 
8 22 
8 24 
8 25 
8 27 
8 35 
8 37 
8 39 
8 42 
8 43 
8 45 
8 48 
8 52 
8 55 
8 57 
9 12 
9 16 
9 20 
9 23 
9 26 
9 29 
9 33 
9 38 
9 39 
9 44 
9 48 
9 51 
9 52 
9 53 
9 56 
9 57 
10 11 
10 12 
10 13 
10 14 
10 15 
10 16 
10 17 
10 18 
10 19 
10 20 
10 21 
10 22 
10 23 
10 24 
10 30 
10 40 
10 44 
10 45 
10 49 
10 54 
10 57 
11 12 
11 13 
11 14 
11 15 
11 16 
11 17 
11 18 
11 20 
11 25 
11 26 
11 27 
11 28 
11 29 
11 30 
11 32 
11 36 
11 41 
11 42 
11 43 
11 44 
12 13 
12 14 
12 15 
12 16 
12 17 
12 19 
12 20 
12 25 
12 26 
12 31 
12 32 
12 33 
12 34 
12 35 
12 38 
12 51 
12 52 
12 56 
12 57 
13 14 
13 15 
13 16 
13 17 
13 18 
13 19 
13 27 
13 31 
13 36 
13 37 
13 38 
13 39 
13 40 
13 41 
13 48 
13 49 
13 50 
13 51 
14 15 
14 16 
14 17 
14 21 
14 24 
14 26 
14 27 
14 33 
14 35 
14 39 
14 41 
14 43 
14 45 
14 46 
14 47 
14 55 
14 57 
15 16 
15 17 
15 22 
15 24 
15 25 
15 29 
15 34 
15 37 
15 40 
15 42 
15 45 
15 47 
15 48 
15 50 
15 52 
15 56 
16 17 
16 23 
16 28 
16 29 
16 31 
16 33 
16 39 
16 42 
16 44 
16 47 
16 48 
16 51 
16 53 
16 54 
16 55 
17 21 
17 23 
17 30 
17 32 
17 35 
17 36 
17 37 
17 46 
17 50 
17 52 
17 53 
17 54 
17 55 
17 56 
18 19 
18 20 
18 21 
18 22 
18 23 
18 24 
18 25 
18 26 
18 27 
18 28 
18 29 
18 30 
18 31 
18 36 
18 37 
18 38 
18 39 
18 40 
19 20 
19 21 
19 22 
19 23 
19 24 
19 25 
19 27 
19 31 
19 32 
19 33 
19 34 
19 35 
19 41 
19 48 
19 49 
19 50 
19 51 
20 21 
20 22 
20 23 
20 24 
20 26 
20 32 
20 36 
20 38 
20 41 
20 42 
20 43 
20 44 
20 51 
20 52 
20 56 
20 57 
21 22 
21 23 
21 24 
21 26 
21 30 
21 32 
21 33 
21 37 
21 41 
21 45 
21 46 
21 47 
21 53 
21 55 
21 56 
22 23 
22 24 
22 25 
22 28 
22 34 
22 37 
22 38 
22 42 
22 43 
22 45 
22 46 
22 48 
22 49 
22 52 
22 53 
23 24 
23 29 
23 33 
23 35 
23 36 
23 39 
23 44 
23 46 
23 48 
23 50 
23 52 
23 53 
23 54 
24 27 
24 29 
24 34 
24 35 
24 39 
24 40 
24 43 
24 47 
24 50 
24 55 
24 56 
24 57 
25 26 
25 27 
25 28 
25 29 
25 30 
25 31 
25 32 
25 33 
25 34 
25 35 
25 37 
25 42 
25 45 
25 48 
25 52 
26 27 
26 28 
26 29 
26 30 
26 33 
26 38 
26 41 
26 45 
26 46 
26 47 
26 51 
26 52 
26 56 
26 57 
27 28 
27 29 
27 30 
27 35 
27 39 
27 41 
27 43 
27 48 
27 49 
27 50 
27 51 
27 55 
27 57 
28 29 
28 30 
28 31 
28 34 
28 38 
28 42 
28 43 
28 46 
28 47 
28 49 
28 51 
28 53 
28 54 
28 55 
29 30 
29 33 
29 34 
29 39 
29 40 
29 44 
29 47 
29 48 
29 50 
29 53 
29 56 
30 32 
30 37 
30 40 
30 44 
30 45 
30 49 
30 53 
30 54 
30 55 
30 56 
30 57 
31 32 
31 33 
31 34 
31 35 
31 36 
31 37 
31 38 
31 39 
31 40 
31 42 
31 47 
31 51 
31 54 
31 55 
32 33 
32 34 
32 35 
32 36 
32 37 
32 41 
32 42 
32 43 
32 44 
32 53 
32 55 
32 56 
33 34 
33 35 
33 39 
33 41 
33 44 
33 45 
33 46 
33 47 
33 48 
33 53 
34 35 
34 38 
34 40 
34 43 
34 46 
34 47 
34 49 
34 50 
34 53 
34 56 
35 36 
35 39 
35 43 
35 46 
35 50 
35 52 
35 54 
35 55 
35 57 
36 37 
36 38 
36 39 
36 40 
36 41 
36 42 
36 43 
36 44 
36 46 
36 50 
36 52 
36 54 
37 38 
37 39 
37 40 
37 42 
37 45 
37 48 
37 52 
37 53 
37 55 
37 56 
38 39 
38 40 
38 43 
38 46 
38 49 
38 51 
38 52 
38 53 
38 56 
38 57 
39 40 
39 43 
39 44 
39 48 
39 53 
39 55 
39 57 
40 44 
40 45 
40 47 
40 49 
40 50 
40 54 
40 56 
40 57 
41 42 
41 43 
41 44 
41 45 
41 46 
41 47 
41 48 
41 49 
41 50 
41 51 
42 43 
42 44 
42 45 
42 47 
42 48 
42 51 
42 52 
42 54 
42 55 
43 44 
43 46 
43 49 
43 53 
43 55 
43 57 
44 45 
44 48 
44 49 
44 53 
44 54 
44 57 
45 46 
45 47 
45 48 
45 49 
45 52 
45 54 
45 57 
46 47 
46 49 
46 50 
46 52 
46 53 
46 54 
47 50 
47 51 
47 54 
47 55 
47 56 
48 49 
48 50 
48 51 
48 52 
48 53 
49 50 
49 51 
49 53 
49 54 
49 57 
50 51 
50 52 
50 54 
50 56 
51 52 
51 54 
51 55 
51 56 
51 57 
52 54 
52 56 
52 57 
53 55 
53 56 
54 55 
54 57 
55 56 
55 57 
56 57 
